# Problem from the book:
# Gyora Bededek: "Hidato: 2000 Pure Logic Puzzles"

# problem 3 (Beginner)
param n := 6;
param puzzle: 1 2 3 4 5 6 :=
 1      .  26 .  .  . 18 
 2      .  . 27  .  . 19 
 3     31 23  .  . 14  . 
 4      . 33  8  . 15  1 
 5      .  .  .  5  .  . 
 6     35 36  .  10 .  .
;

